NAME: random20
TYPE: TSP
COMMENT: Random 20-node EUC_2D instance
DIMENSION: 20
EDGE_WEIGHT_TYPE: EUC_2D
NODE_COORD_SECTION
1  10.0  10.0
2  20.0  30.0
3  25.0  15.0
4  40.0  40.0
5  50.0  25.0
6  15.0  60.0
7  60.0  10.0
8  30.0  55.0
9  70.0  35.0
10 45.0  60.0
11 65.0  20.0
12 80.0  50.0
13 20.0  80.0
14 55.0  55.0
15 85.0  15.0
16 75.0  65.0
17 35.0  20.0
18 90.0  35.0
19 25.0  70.0
20 60.0  70.0
EOF